benchmarks_CP/INST_36x36/25/inst36x36_25_7.dzn
S=6;
start=[|
-1,	29,	-1,	13,	25,	-1,	35,	-1,	-1,	7,	-1,	-1,	-1,	-1,	12,	-1,	-1,	-1,	-1,	-1,	-1,	34,	-1,	-1,	-1,	-1,	19,	-1,	-1,	15,	16,	-1,	-1,	26,	-1,	-1|
-1,	-1,	-1,	-1,	-1,	-1,	-1,	-1,	13,	22,	-1,	-1,	-1,	-1,	29,	19,	-1,	-1,	-1,	-1,	-1,	-1,	17,	20,	-1,	-1,	-1,	-1,	-1,	33,	28,	-1,	3,	-1,	-1,	-1|
-1,	-1,	21,	-1,	-1,	2,	32,	-1,	-1,	-1,	-1,	14,	-1,	18,	16,	-1,	-1,	-1,	8,	-1,	3,	-1,	-1,	-1,	-1,	-1,	-1,	29,	-1,	-1,	-1,	5,	-1,	17,	11,	33|
-1,	4,	14,	-1,	-1,	-1,	-1,	-1,	-1,	-1,	9,	34,	-1,	-1,	-1,	8,	-1,	-1,	-1,	-1,	-1,	16,	-1,	-1,	36,	-1,	27,	28,	-1,	-1,	-1,	-1,	-1,	-1,	-1,	6|
-1,	31,	-1,	-1,	6,	-1,	-1,	-1,	-1,	-1,	-1,	28,	14,	-1,	-1,	-1,	-1,	20,	-1,	32,	7,	-1,	-1,	-1,	-1,	-1,	-1,	-1,	-1,	-1,	-1,	35,	12,	-1,	-1,	-1|
-1,	-1,	-1,	-1,	28,	-1,	31,	-1,	-1,	-1,	-1,	-1,	7,	17,	-1,	-1,	-1,	-1,	2,	35,	-1,	13,	-1,	-1,	-1,	-1,	-1,	6,	-1,	10,	-1,	-1,	30,	-1,	-1,	-1|
13,	-1,	-1,	-1,	20,	33,	-1,	-1,	14,	-1,	-1,	18,	-1,	-1,	24,	-1,	-1,	-1,	-1,	-1,	-1,	-1,	-1,	-1,	-1,	16,	-1,	-1,	-1,	-1,	5,	-1,	-1,	-1,	-1,	-1|
-1,	-1,	10,	-1,	-1,	-1,	-1,	-1,	-1,	1,	-1,	-1,	-1,	-1,	-1,	-1,	-1,	-1,	-1,	11,	-1,	5,	-1,	-1,	32,	-1,	-1,	-1,	-1,	-1,	-1,	-1,	-1,	-1,	-1,	-1|
-1,	-1,	24,	18,	9,	-1,	11,	4,	-1,	6,	36,	-1,	-1,	-1,	-1,	-1,	-1,	-1,	-1,	-1,	-1,	-1,	-1,	22,	-1,	-1,	-1,	34,	-1,	-1,	-1,	-1,	-1,	13,	-1,	25|
2,	-1,	7,	-1,	-1,	-1,	-1,	-1,	-1,	-1,	-1,	10,	-1,	-1,	-1,	-1,	-1,	-1,	19,	-1,	-1,	-1,	-1,	-1,	-1,	13,	18,	-1,	-1,	12,	21,	-1,	-1,	-1,	-1,	-1|
-1,	-1,	19,	-1,	-1,	-1,	-1,	-1,	-1,	35,	-1,	-1,	33,	-1,	-1,	36,	22,	-1,	24,	-1,	-1,	-1,	-1,	-1,	-1,	-1,	-1,	-1,	-1,	21,	-1,	-1,	-1,	-1,	-1,	-1|
-1,	-1,	28,	-1,	-1,	-1,	7,	12,	-1,	-1,	-1,	30,	19,	-1,	-1,	-1,	27,	-1,	-1,	-1,	-1,	-1,	-1,	-1,	15,	20,	-1,	1,	-1,	3,	4,	-1,	-1,	24,	-1,	-1|
-1,	5,	-1,	34,	-1,	17,	-1,	25,	-1,	-1,	15,	-1,	-1,	-1,	-1,	-1,	-1,	-1,	-1,	31,	-1,	-1,	11,	-1,	-1,	-1,	-1,	35,	10,	-1,	-1,	-1,	29,	-1,	-1,	-1|
-1,	-1,	-1,	-1,	15,	-1,	-1,	-1,	30,	-1,	-1,	-1,	-1,	20,	-1,	18,	34,	6,	-1,	-1,	2,	22,	36,	35,	-1,	-1,	-1,	-1,	-1,	-1,	-1,	-1,	-1,	-1,	-1,	-1|
-1,	12,	-1,	-1,	-1,	-1,	-1,	-1,	29,	-1,	-1,	27,	-1,	-1,	-1,	-1,	4,	15,	-1,	-1,	-1,	-1,	-1,	-1,	14,	-1,	-1,	-1,	-1,	-1,	-1,	-1,	33,	-1,	-1,	-1|
18,	-1,	-1,	-1,	-1,	-1,	-1,	-1,	-1,	-1,	8,	-1,	-1,	-1,	-1,	-1,	16,	-1,	-1,	-1,	-1,	23,	-1,	-1,	-1,	-1,	11,	-1,	-1,	-1,	-1,	-1,	-1,	-1,	5,	-1|
-1,	-1,	9,	-1,	22,	-1,	10,	-1,	-1,	-1,	-1,	11,	-1,	-1,	-1,	-1,	-1,	-1,	-1,	-1,	-1,	-1,	30,	-1,	-1,	27,	-1,	-1,	-1,	-1,	-1,	-1,	-1,	-1,	26,	-1|
4,	10,	-1,	-1,	-1,	-1,	-1,	-1,	-1,	19,	-1,	17,	-1,	-1,	-1,	-1,	-1,	-1,	-1,	-1,	-1,	-1,	18,	-1,	-1,	15,	-1,	-1,	-1,	-1,	-1,	7,	-1,	-1,	-1,	30|
-1,	-1,	-1,	-1,	-1,	-1,	-1,	21,	-1,	27,	-1,	-1,	-1,	-1,	-1,	-1,	-1,	-1,	34,	-1,	-1,	-1,	-1,	-1,	-1,	-1,	-1,	7,	15,	-1,	25,	-1,	-1,	-1,	-1,	4|
-1,	-1,	23,	-1,	-1,	-1,	-1,	-1,	28,	-1,	-1,	-1,	-1,	19,	-1,	30,	15,	-1,	10,	-1,	-1,	-1,	-1,	-1,	-1,	-1,	-1,	-1,	-1,	27,	22,	-1,	-1,	32,	-1,	-1|
-1,	-1,	4,	-1,	-1,	16,	-1,	-1,	-1,	-1,	24,	-1,	-1,	34,	10,	-1,	-1,	29,	-1,	-1,	-1,	-1,	-1,	36,	18,	1,	-1,	11,	32,	-1,	-1,	-1,	-1,	33,	-1,	35|
-1,	35,	-1,	-1,	5,	-1,	4,	-1,	11,	-1,	26,	36,	-1,	-1,	-1,	-1,	-1,	-1,	-1,	18,	-1,	-1,	-1,	13,	-1,	-1,	-1,	12,	-1,	-1,	-1,	-1,	-1,	2,	7,	10|
33,	28,	11,	-1,	-1,	-1,	14,	-1,	-1,	-1,	18,	-1,	-1,	32,	-1,	21,	-1,	-1,	3,	22,	-1,	-1,	-1,	-1,	-1,	9,	24,	-1,	-1,	-1,	-1,	-1,	-1,	5,	-1,	-1|
-1,	-1,	-1,	-1,	-1,	32,	-1,	-1,	-1,	-1,	-1,	-1,	-1,	-1,	-1,	-1,	36,	7,	-1,	-1,	30,	-1,	12,	4,	-1,	-1,	-1,	-1,	-1,	-1,	-1,	-1,	14,	-1,	-1,	3|
36,	-1,	-1,	-1,	-1,	-1,	-1,	34,	17,	14,	-1,	-1,	-1,	-1,	-1,	-1,	-1,	-1,	-1,	-1,	-1,	-1,	-1,	-1,	-1,	-1,	-1,	-1,	-1,	-1,	-1,	-1,	-1,	-1,	-1,	-1|
-1,	-1,	-1,	-1,	16,	-1,	-1,	-1,	-1,	-1,	-1,	22,	-1,	-1,	-1,	-1,	-1,	28,	-1,	-1,	-1,	10,	-1,	-1,	-1,	-1,	-1,	-1,	-1,	-1,	-1,	-1,	36,	-1,	-1,	-1|
-1,	-1,	-1,	-1,	-1,	-1,	-1,	-1,	-1,	-1,	27,	-1,	-1,	-1,	-1,	-1,	17,	-1,	-1,	-1,	-1,	-1,	-1,	-1,	-1,	-1,	-1,	24,	-1,	-1,	29,	-1,	-1,	31,	35,	-1|
-1,	33,	-1,	-1,	7,	-1,	-1,	-1,	-1,	-1,	-1,	-1,	-1,	-1,	-1,	-1,	-1,	-1,	-1,	20,	-1,	-1,	9,	-1,	-1,	-1,	-1,	8,	-1,	-1,	-1,	1,	6,	-1,	-1,	-1|
-1,	22,	-1,	-1,	-1,	-1,	30,	32,	-1,	21,	7,	35,	12,	-1,	20,	31,	-1,	-1,	36,	-1,	29,	14,	-1,	-1,	-1,	-1,	-1,	-1,	19,	34,	-1,	11,	-1,	9,	8,	16|
14,	-1,	-1,	-1,	-1,	-1,	1,	-1,	4,	-1,	-1,	-1,	-1,	-1,	-1,	-1,	7,	-1,	13,	-1,	-1,	-1,	-1,	-1,	-1,	11,	-1,	-1,	-1,	-1,	-1,	-1,	5,	-1,	-1,	22|
-1,	-1,	-1,	-1,	2,	-1,	-1,	17,	-1,	-1,	-1,	-1,	-1,	36,	-1,	-1,	-1,	8,	-1,	-1,	-1,	18,	-1,	-1,	-1,	-1,	-1,	15,	-1,	-1,	-1,	26,	-1,	25,	-1,	-1|
29,	-1,	-1,	-1,	-1,	-1,	-1,	3,	-1,	2,	-1,	15,	-1,	12,	7,	-1,	32,	-1,	-1,	-1,	-1,	-1,	-1,	-1,	35,	14,	-1,	-1,	-1,	-1,	-1,	-1,	24,	-1,	-1,	-1|
6,	-1,	-1,	16,	-1,	30,	5,	-1,	-1,	-1,	-1,	-1,	18,	10,	-1,	4,	-1,	-1,	-1,	-1,	-1,	-1,	-1,	25,	-1,	22,	8,	-1,	-1,	1,	3,	-1,	-1,	-1,	-1,	-1|
-1,	-1,	-1,	-1,	33,	-1,	-1,	-1,	36,	-1,	-1,	-1,	-1,	-1,	-1,	6,	-1,	-1,	-1,	-1,	4,	-1,	-1,	-1,	12,	-1,	-1,	-1,	27,	-1,	-1,	-1,	-1,	-1,	-1,	-1|
-1,	-1,	-1,	-1,	-1,	8,	24,	-1,	26,	-1,	-1,	7,	15,	33,	-1,	35,	-1,	-1,	-1,	-1,	20,	-1,	-1,	-1,	-1,	23,	-1,	-1,	-1,	4,	-1,	-1,	28,	-1,	-1,	-1|
-1,	-1,	-1,	25,	-1,	-1,	28,	33,	-1,	-1,	11,	-1,	-1,	-1,	-1,	-1,	-1,	-1,	-1,	-1,	22,	-1,	-1,	-1,	-1,	-1,	-1,	32,	-1,	-1,	-1,	-1,	16,	-1,	-1,	-1|];
